nNurses = 195;
nHours = 28;
minHours = 8;
maxHours = 13;
maxConsec = 10;
maxPresence = 26;
demand = [32, 32, 37, 33, 32, 32, 37, 40, 36, 38, 35, 36, 32, 28, 25, 28, 23, 22, 24, 19, 14, 17, 18, 18, 14, 18, 15, 13];
